 $SYSTEM
 mwords=10
 $END
 $CONTRL 
 maxit=200 
 runtyp=energy 
 icharg=0 mult=1
 scftyp=gvb 
 units=angs
 local=none 
 aimpac=.true. 
 nosym=1 
 ispher=1 
 $END
 $GUESS
 guess=moread 
 norb=64
 norder=1
 iorder(25)=26,27,28,29,30,31,32,33,34,35,36,37,38,39,40,
 25,49,41,42,43,44,45,46,47,48
 $END
 $SCF 
 nco=39
 npair=1
 soscf=.t. 
 $END
 $DET 
 ncore=39
 nact=2
 nels=2 
 prttol=1d-5 
 $END
 $BASIS
 gbasis=cct 
 $END
 $DATA
  pnitro-bh3
  cn 1

 C  6      -1.595757       0.000235      -0.344262
 C  6      -0.919967      -1.205705      -0.259478
 C  6       0.453258      -1.209706      -0.107069
 C  6       1.118664       0.000013      -0.036916
 C  6       0.453449       1.209827      -0.106598
 C  6      -0.919807       1.206040      -0.259017
 H  1      -1.466243      -2.138139      -0.295506
 H  1       1.009021      -2.131685      -0.039545
 H  1       1.009315       2.131719      -0.038704
 H  1      -1.465903       2.138598      -0.294756
 N  7      -3.029116       0.000460      -0.460424
 H  1      -3.345309       0.817168      -0.970331
 H  1      -3.345710      -0.815287      -0.971605
 N  7       2.581788      -0.000117       0.119295
 O  8       3.139079      -1.075444       0.177775
 O  8       3.139208       1.075136       0.177756
 B  5      -3.824371      -0.000710       1.006369
 H  1      -3.456300       1.012563       1.553012
 H  1      -4.994737      -0.000607       0.697981
 H  1      -3.456316      -1.014944       1.551299
 $END
 $VEC
 1  1 3.30799090E-06 6.83768385E-06 3.38766625E-06 2.17450072E-04 5.06228681E-07
 1  2 1.18182147E-05 7.43294425E-08-1.24583933E-06-9.22629264E-05-3.16652068E-07
 1  3 1.10601746E-04 1.07487588E-03 1.33614526E-05 8.62892901E-07-1.37966446E-06
 1  4 5.16771560E-07 8.82567038E-06 1.18488332E-07 6.58771067E-07-4.04432194E-05
 1  5 4.37895888E-05-3.34636938E-06-1.55386314E-04-4.60462956E-06-1.66300673E-05
 1  6-6.02890687E-08-2.21183288E-05 8.95993507E-08 1.63084933E-05-1.50364198E-07
 1  7 2.36802871E-07 3.01540547E-08-1.55916598E-07 1.33663587E-05-1.29720231E-07
 1  8 4.62296573E-05 8.76846429E-05-9.86287114E-06 1.93917017E-03-2.11993866E-05
 1  9 4.27819360E-06-2.92984698E-06 4.21449241E-04-1.17200763E-04 4.92314466E-05
 1 10 2.31843358E-04 5.86086878E-04 1.28389527E-05 9.68950625E-06-1.52043193E-05
 1 11 5.51481301E-06-4.15427991E-06 2.98029615E-07-1.48307223E-08 1.93113918E-04
 1 12-9.32783512E-05-9.98355665E-05-2.03664073E-05 3.84244473E-05-1.59170423E-06
 1 13 8.04864195E-06 2.31704305E-05-2.48261248E-06-3.15872602E-05 3.75166184E-06
 1 14 4.12537453E-07-4.20887675E-07-1.12109238E-05 5.00865653E-07-4.53962566E-06
 1 15 2.99914759E-05 7.11169662E-05 1.13510453E-04-2.47907077E-03 1.12294766E-06
 1 16 5.29165873E-06 1.74660026E-07 1.94486094E-04 2.28459020E-04 2.01643545E-05
 1 17 1.20936389E-05-4.84805350E-04 7.81442503E-06 2.18323485E-05-2.40280259E-05
 1 18 2.19567740E-06 2.69059891E-05 2.99912775E-06 3.04592092E-06-4.75732832E-04
 1 19 2.59736164E-04 2.15996668E-04 3.58752111E-06-9.14869582E-05-1.05923472E-06
 1 20 1.63254934E-05-8.55383271E-05-8.03202111E-07 8.13106153E-05 2.84132211E-06
 1 21-1.87592187E-05-1.76371339E-06-3.14372905E-06 3.34510932E-05 6.14537129E-06
 1 22-2.06380289E-05-4.15473671E-05 1.50581315E-07-4.80433902E-04-8.59652739E-06
 1 23 5.00462005E-05-8.74023288E-07 7.52175073E-05-2.92264831E-04 7.67109632E-06
 1 24 2.99380134E-04-1.34443967E-03 3.20852646E-05-3.75313283E-06 1.50467078E-06
 1 25 2.24846204E-06 5.99086074E-05-7.37041766E-07 6.28582279E-06 1.00329242E-04
 1 26-1.27237866E-04 2.69086235E-05-7.40734418E-04 9.29376816E-06-8.15501369E-05
 1 27-9.07633422E-06 1.33061757E-04-1.99539614E-06-2.41733406E-04 4.94933294E-07
 1 28 2.05434000E-05 2.18217156E-06-8.36621978E-06 6.32123261E-05-3.77168034E-05
 1 29-1.62932159E-05-4.43703107E-05-1.16127516E-04 3.06949027E-03-1.33514975E-06
 1 30 1.13481480E-05-1.89875605E-07-1.80313122E-04 5.07183083E-05-1.91949004E-05
 1 31-7.80023237E-05-8.81894175E-04-1.74670000E-05-3.06604180E-05 3.39887087E-05
 1 32-3.32829067E-06 2.05106053E-05-3.97176606E-06 2.38765997E-06 5.56951308E-04
 1 33-3.28791874E-04-2.28159433E-04-2.07331722E-04 1.02052509E-04-2.49055533E-05
 1 34-2.24245141E-05-9.26936756E-05 8.33384486E-07 8.32102125E-05-3.56996091E-06
 1 35 2.74048950E-05 2.45185830E-06 2.68074779E-06 4.11514033E-05 5.42544385E-06
 1 36-5.93340788E-05-1.13744566E-04 2.92208632E-06-2.26742070E-03 2.09933893E-05
 1 37 5.44870078E-06 2.91366901E-06-4.58576692E-04-1.09894576E-04-5.28049577E-05
 1 38-2.75191477E-04 7.84575923E-04-1.47593180E-05-1.13895412E-05 1.53817427E-05
 1 39-3.99220145E-06-1.35512668E-06-6.65039564E-07 2.63030372E-07-2.28947606E-04
 1 40 1.40477217E-04 8.84703881E-05-1.46791322E-04-4.33487779E-05-1.46722915E-05
 1 41-5.76815158E-06 2.53007526E-05 2.02192458E-06-3.35616746E-05-3.09576189E-06
 1 42-1.99809411E-06 3.83065398E-07 9.73688153E-06-3.82847085E-07-4.74889112E-06
 1 43 2.96764147E-06 1.62428542E-05 1.12556374E-04 9.60038267E-06 2.22825517E-06
 1 44 5.94890143E-07-4.19904185E-06 3.76344877E-07 1.27514002E-06-1.05264947E-06
 1 45-6.72904706E-07 1.72555417E-06 6.45203234E-06-5.66639823E-07 9.44536021E-07
 1 46-3.36315093E-05 2.34239071E-04 1.23023394E-04-9.85086018E-06 4.18656078E-06
 1 47-5.15017142E-07 1.29905901E-04 1.97452865E-04 1.15840113E-05-2.83130900E-05
 1 48 5.23845988E-05-2.40715088E-05 3.13937988E-05-1.03258183E-06 2.77875732E-06
 1 49 2.71471636E-05 3.55777423E-05 5.33521922E-06 8.79887602E-07 5.50463552E-06
 1 50-4.06264009E-07-1.68527311E-04 1.04071548E-04-1.66046490E-05 2.91089646E-05
 1 51-4.84439254E-05 1.93349608E-05 3.53850726E-05 1.77204721E-06 3.26767185E-06
 1 52-5.16012877E-06-1.41361911E-04-1.51284190E-04-9.85346806E-06 4.08825015E-06
 1 53-7.07194455E-07-1.11736652E-05 3.47123555E-05-1.08245653E-06 3.30770593E-06
 1 54-3.62031851E-07-2.94567408E-06 7.98101385E-06 1.06352833E-06 9.72955471E-07
 1 55 7.52446201E-07 1.47944924E-06 2.17540757E-11 6.38420952E-05-4.89047253E-07
 1 56 3.51185309E-06-4.11958125E-08 6.63549212E-06-2.78586833E-05-1.28811724E-07
 1 57 1.95643368E-05-3.06238683E-04 2.02971979E-06-7.99171388E-08 2.88731567E-07
 1 58-2.08814429E-07-6.55157521E-07 4.67622766E-09 9.53708303E-07 4.24888854E-06
 1 59-4.63644307E-06 3.87554533E-07-3.78605977E-06 6.90976722E-07 3.09502437E-06
 1 60 3.41603227E-07 4.12178246E-06-5.06785061E-09-7.19988738E-06-1.08203485E-07
 1 61-3.58209862E-07 1.15002721E-07-1.00098960E-07 1.66993592E-06-3.81293838E-06
 1 62-1.90102304E-06 8.27619717E-05-2.67614547E-05 6.48272583E-06-2.67725652E-06
 1 63-9.09910872E-07-2.60282076E-05-6.95505391E-06 2.29874503E-05-4.06364056E-06
 1 64 5.90238346E-07 3.47340221E-06 6.67915200E-07 4.73864080E-07-2.29012939E-06
 1 65 2.89951984E-06-9.05261856E-05 3.63692815E-05-6.46473865E-06-2.19940508E-06
 1 66 1.31568409E-06 2.63176069E-05-1.07815318E-05-2.25699547E-05 4.29813034E-06
 1 67-1.35397453E-06-2.94415581E-06 7.88966922E-07 2.80228146E-08-2.03185047E-06
 1 68-6.98166485E-05-1.42518043E-04-8.90907518E-06 4.22294357E-06-1.87885474E-05
 1 69 1.58823132E-04-1.98990319E-06-4.87255443E-05 1.50835218E-03-5.05464718E-06
 1 70 1.53971411E-04-8.30483490E-04 1.62657306E-05 1.64409273E-05-3.90430452E-05
 1 71 2.26021179E-05 3.87690566E-04-7.55000722E-07 4.07927812E-05-5.75919284E-05
 1 72 5.56928665E-05 1.89906186E-06-4.58991669E-04-7.33935816E-06-4.92484602E-05
 1 73-3.06459479E-05-1.17466144E-04-3.66170400E-06-2.03819178E-05-1.03498135E-06
 1 74 5.66148068E-05 5.94767279E-06-1.54989532E-05 1.77979288E-04-2.41410451E-05
 1 75-7.67072831E-01 3.40355087E-03-4.06613635E-02-2.95498054E-03 7.39805623E-04
 1 76-1.27150027E-03 7.81995466E-05-6.23881896E-04 8.39024894E-04-6.55010703E-05
 1 77 3.14145585E-04-3.36543685E-04 3.22020701E-05 4.38565436E-05-1.24494479E-04
 1 78 8.06379351E-05 1.69891109E-04-4.59034816E-06 1.78708374E-05-3.78535042E-05
 1 79 2.45192568E-04-2.07339064E-04-4.56900192E-04 2.11259656E-05-4.81653666E-05
 1 80 6.59059130E-05 1.35445350E-05 9.35799848E-06 4.25291034E-05 8.88248496E-07
 1 81-1.27814464E-04-1.34433209E-05 3.93924027E-05-6.07010039E-05 1.26980299E-05
 1 82 5.94429621E-01-2.68770285E-03 3.15164000E-02 2.30427421E-03-5.84669284E-04
 1 83-9.78040916E-04-6.17428730E-05 5.52885355E-04 6.65081394E-04 5.79939499E-05
 1 84-2.61913429E-04-2.75099170E-04-2.67314311E-05-2.70214851E-05 8.05315588E-05
 1 85-5.35100737E-05 1.31908719E-04 3.32155423E-06 1.38777647E-05-5.06363166E-06
 1 86-1.47178383E-04 1.52242014E-04-4.13792547E-04-1.96017050E-05-4.36272490E-05
 1 87-6.82090532E-05-4.50873633E-06-7.72661665E-06 4.81592917E-05-2.68853655E-06
 1 88 1.24173619E-04 1.30548806E-05-3.26615715E-05-4.21101872E-05 1.10987956E-05
 1 89-1.06101752E-06-2.00801169E-06 8.72302683E-07-1.92304290E-07 1.20455248E-07
 1 90-1.71043765E-06-1.56264238E-07-2.47759914E-06 2.26509611E-05 3.66384288E-06
 1 91-1.64810575E-06 1.75543519E-05 6.61932620E-08 3.30829702E-08 2.06118182E-07
 1 92-2.39201153E-07 3.09267711E-06 2.07191526E-07-1.51196526E-06-9.29960499E-07
 1 93 1.45928228E-06-5.29321780E-07-6.58498623E-06 1.26398898E-06-4.05321616E-05
 1 94 1.84884581E-07 2.96089126E-06-6.85311372E-09-5.07655947E-06 1.61599500E-07
 1 95-2.88588770E-07-1.52405083E-07 4.05400743E-08 1.10410699E-06-4.47107204E-06
 1 96 1.54933564E-06 4.03295990E-06-1.13558757E-05 2.12756685E-06 1.29513919E-06
 1 97-2.39970085E-06-5.01710698E-06-6.82483075E-06 1.25996833E-05-7.82919074E-07
 1 98 1.39136312E-06-6.08444050E-07-1.16699721E-06-5.87525309E-07-7.64236522E-08
 1 99 2.90294702E-09 7.16868473E-07-2.07911851E-06 1.66524817E-07 1.62414575E-06
 1100 1.95656287E-08-1.94002189E-07-4.92256893E-06-4.14022618E-07 2.21740975E-08
 1101-8.92607448E-08 6.70866473E-08 9.52591004E-07-1.66724483E-07 2.36565915E-07
 1102-1.53337871E-06-3.77921610E-06 1.19967507E-05-2.55379566E-06 1.46052113E-06
 1103 2.37473943E-06 7.19567939E-06-7.13010026E-06-1.32086641E-05 7.80601084E-07
 1104-1.44092429E-06 6.60323208E-07-1.00548200E-06 4.46395162E-07-1.49230029E-07
 2  1-2.60546104E-05-5.38909666E-05-2.68953798E-05-1.70581452E-03-3.94610457E-06
 2  2 1.49893457E-06-5.51294070E-07 9.56685353E-06-1.16891467E-05 2.26442390E-06
 2  3-8.69456969E-04 1.36836883E-04-1.02951353E-04-6.80651113E-06 1.08469290E-05
 2  4-4.04041790E-06 1.12209499E-06-9.19044349E-07 8.62648901E-08 3.19186167E-04
 2  5-3.45150624E-04 2.59644571E-05-1.97649355E-05 3.62525736E-05-2.17949142E-06
 2  6 5.00840443E-07-2.80280997E-06-6.73088268E-07 2.06566665E-06 1.19094196E-06
 2  7-1.89353869E-06-2.87899290E-07 1.22159072E-06 1.69469752E-06-1.52891155E-08
 2  8 5.83230399E-05 1.15451921E-04 2.66657770E-05 1.55204847E-03-1.83605830E-06
 2  9 5.25791087E-06-2.84193505E-07 2.02154383E-04 1.40370975E-05 2.02847202E-05
 2 10 2.00888253E-04 8.67355428E-04 9.96934413E-06 8.01007149E-06-2.62222634E-06
 2 11-5.38784516E-06 1.06654661E-05 1.49299714E-06 1.08281273E-06 1.67907253E-04
 2 12-2.01009612E-04 3.31023585E-05-5.09713727E-04 2.42583400E-05-5.27969668E-05
 2 13-8.17829780E-06 1.14885577E-05 1.55199968E-06-1.19344735E-05-2.24867462E-06
 2 14 6.48778293E-06 1.66448549E-07 4.48455496E-06-3.47904403E-06-1.38507048E-06
 2 15-5.12332718E-05-9.84489225E-05 2.47305816E-05-2.67247904E-03 1.03683857E-06
 2 16 2.49200152E-05 9.43120311E-08-3.24152776E-05-6.83376030E-04-1.21543840E-06
 2 17 2.60628659E-04-1.64959776E-03 3.79754971E-05 3.81464634E-05-4.29748656E-05
 2 18 4.82840221E-06-2.22546105E-05 4.33095028E-06-2.31275576E-06-3.86071093E-04
 2 19 3.10345615E-04 7.57254775E-05-8.44525768E-04-5.43884186E-05-9.53388978E-05
 2 20 2.65243592E-05-3.94143567E-05-7.90232540E-08 1.78256066E-05 3.43898141E-06
 2 21-3.71139439E-05-3.33296059E-06 1.52778173E-06 3.50543019E-05-2.10398173E-06
 2 22 1.62683222E-04 3.27473008E-04-1.18908494E-06 3.78402492E-03 6.78364002E-05
 2 23 6.33998628E-06 6.92861048E-06-5.93634881E-04-3.69869296E-05-6.08760164E-05
 2 24-2.35552650E-03-1.71520042E-04-2.54717402E-04 2.96120847E-05-1.20277306E-05
 2 25-1.75843542E-05 7.57783077E-06 5.90909678E-06 7.95845662E-07-7.93211737E-04
 2 26 1.00564709E-03-2.12435349E-04-9.35851411E-05-7.40725857E-05-1.00631350E-05
 2 27 7.11306214E-05 1.69037455E-05 1.58296545E-05-3.06781470E-05-4.00473610E-06
 2 28-1.61366968E-04-1.72329740E-05 6.59352248E-05 7.99939265E-06-4.80532157E-06
 2 29-5.70738018E-05-1.13037499E-04-4.39146399E-06-1.96664901E-03 7.34458957E-07
 2 30-2.28010727E-05 4.23257662E-08-7.99515369E-05 7.18706776E-04-5.94246002E-06
 2 31 2.49775286E-04 1.47551828E-03 3.54951175E-05 3.15065305E-05-3.56354270E-05
 2 32 4.12889652E-06 2.82500719E-05 3.45111432E-06 2.97912170E-06-2.55016620E-04
 2 33 2.35573346E-04 1.94432742E-05 8.18802325E-04-2.94488337E-05 9.21197569E-05
 2 34 2.15846860E-05 1.68347214E-05 9.43104699E-08 3.02426671E-06 2.60937757E-06
 2 35-3.12437513E-05-2.73590834E-06 2.28485623E-06-2.56104156E-05 3.54728708E-06
 2 36 4.49292736E-05 8.98942534E-05 2.83004170E-05 1.01751231E-03 3.51991882E-06
 2 37-4.02635518E-06 4.49549846E-07 9.04743887E-05-4.28678968E-05 7.36461168E-06
 2 38 1.36643920E-04-6.93109914E-04 6.15773159E-06 5.32702159E-06 1.26209505E-06
 2 39-6.58911663E-06-1.13614666E-05 1.36671610E-06-1.05080794E-06 1.14456838E-04
 2 40-1.71515295E-04 5.70584573E-05 4.88444014E-04 1.41022118E-05 5.06576572E-05
 2 41-9.94223268E-06-5.34917848E-06 2.12472561E-06 3.68430110E-06-3.10870994E-06
 2 42 6.19102899E-06 2.58091405E-07 7.14787588E-06 3.49237492E-06 2.05446198E-07
 2 43 9.13131216E-06 5.04092479E-04 1.68814758E-04 2.24798312E-06 7.71699775E-06
 2 44 5.24696340E-07 6.12477849E-05 1.37853113E-04-5.71928244E-07-9.14776838E-06
 2 45 4.05001816E-06 5.09775023E-06 6.96245427E-06-2.05430106E-06 2.22423996E-07
 2 46 2.17012683E-05-1.05180274E-03-4.97204067E-04 3.46932562E-05 5.83043454E-06
 2 47 3.61586050E-06 1.71427655E-04-3.49469328E-04 2.19365962E-05-6.77280637E-06
 2 48-9.19113047E-06 1.59639368E-05 1.99848391E-05-3.03663198E-06 2.48610333E-06
 2 49 2.94101775E-05-1.07707443E-03-5.12078234E-04 3.60531946E-05-4.61089433E-06
 2 50 3.62199259E-06 1.33661607E-04 3.87678673E-04 1.85271799E-05 4.94615117E-07
 2 51-2.19599943E-05 2.14653792E-05-1.15189012E-05-2.68283809E-06-1.73759319E-06
 2 52 8.09521174E-06 4.84151640E-04 1.35334666E-04-2.17582539E-07-6.91545267E-06
 2 53 3.54220220E-07 6.03267412E-05-1.33448542E-04-8.97977085E-07-8.59649354E-06
 2 54 4.09391641E-06 4.50257713E-06-5.12983540E-06-1.85104643E-06 1.92664212E-08
 2 55-6.10854600E-06-1.19887744E-05 5.39516400E-08-5.05884949E-04 3.85752598E-06
 2 56 4.41433888E-07 3.07147318E-07-5.23656314E-05-3.51119164E-06 1.15754533E-06
 2 57-1.56194792E-04-3.88268418E-05-1.64803575E-05 6.44399796E-07-2.30073149E-06
 2 58 1.65633169E-06-8.44775052E-08-6.06717508E-08 1.21306441E-07-3.35110169E-05
 2 59 3.64324606E-05-2.92144372E-06-4.54837244E-07-5.29380144E-06 3.97270758E-07
 2 60-2.72561063E-06 5.23356522E-07 3.69927907E-08-9.13637436E-07 8.13460272E-07
 2 61 2.89382475E-06-8.63091308E-07 7.62965635E-07 2.11480979E-07-4.85468070E-07
 2 62-4.31620142E-06 4.23658838E-05-4.18775385E-05 7.23332405E-07 1.55544091E-06
 2 63-1.73747864E-06-4.20407243E-06-1.65549645E-05 1.26230743E-06-1.42880255E-06
 2 64 3.15239532E-06-1.72359276E-06 5.49692380E-07-1.90571148E-06 7.09703116E-07
 2 65-3.70082466E-06 2.04236231E-05-3.38249913E-05-9.20696963E-07-2.16263602E-06
 2 66-1.45713038E-06 2.47420640E-06 1.43081541E-05-4.49496637E-06-3.64565632E-07
 2 67 2.90989454E-06-2.54532891E-06-3.57339782E-07-1.96194120E-06-1.25023393E-06
 2 68 5.50029304E-04 1.12298298E-03 7.11167996E-05-4.50907888E-05 1.48631664E-04
 2 69 2.00959688E-05 1.57004757E-05 3.82800911E-04 1.91510634E-04 3.96300742E-05
 2 70-1.21656530E-03-1.04153790E-04-1.27929499E-04-1.29324920E-04 3.07560414E-04
 2 71-1.78235494E-04 4.91754237E-05 5.97734193E-06 5.16949212E-06 4.54670112E-04
 2 72-4.41159844E-04-1.35102682E-05-5.79501744E-05 5.75664395E-05-6.23897669E-06
 2 73 2.42087502E-04-1.48068675E-05 2.89053809E-05-2.65036769E-06 8.19630007E-06
 2 74-4.47417338E-04-4.69769381E-05 1.22622872E-04 2.25158651E-05-3.05066172E-06
 2 75 5.94563657E-01-2.43659111E-03 3.14902830E-02 2.23908095E-03-5.28190894E-04
 2 76 1.01424336E-03-5.58955976E-05 2.04682346E-04-5.88724314E-04 2.15894828E-05
 2 77-1.70559210E-04 2.05679539E-04-1.79309333E-05-6.18050606E-05 1.60297014E-04
 2 78-9.84919536E-05-1.30739242E-04 4.49291049E-06-1.37167059E-05 1.66734492E-04
 2 79-3.60702659E-04 1.93968168E-04 1.14129157E-04-3.35473246E-06 1.19532800E-05
 2 80 1.77349904E-05-7.03940382E-05-5.33125627E-06 2.77841897E-05 7.32449030E-06
 2 81-1.86270467E-06-1.71859444E-07-2.19312818E-05 6.66593230E-05-4.77723546E-06
 2 82 7.67176703E-01-3.20891206E-03 4.06411555E-02 2.90414976E-03-6.96280455E-04
 2 83-1.29943726E-03-7.36053739E-05 3.54113493E-04 7.79767372E-04 3.72393015E-05
 2 84-2.43333902E-04-2.82685803E-04-2.53202190E-05-7.07664280E-05 1.86263149E-04
 2 85-1.15496721E-04 1.69046776E-04 5.49851415E-06 1.77373456E-05 1.70942993E-04
 2 86-4.10576122E-04 2.39633129E-04-2.24741838E-04-8.53512977E-06-2.36024084E-05
 2 87 7.06163577E-07 7.15565329E-05-7.49878743E-06-1.62947255E-05 6.87337030E-06
 2 88 3.01335436E-05 3.18730877E-06-3.10809614E-05-7.97084376E-05 7.79501315E-06
 2 89 8.36575002E-06 1.58227969E-05-6.92415822E-06 6.28384501E-07-9.81555555E-07
 2 90-2.19904548E-07 1.20324342E-06 2.00714935E-05 2.94601922E-06-2.82971265E-05
 2 91 1.26576526E-05 2.26085346E-06-3.63535950E-07-3.05214046E-07-1.55691585E-06
 2 92 1.86212990E-06 3.94393764E-07-1.62657644E-06-1.93104176E-07 7.19984178E-06
 2 93-1.09008786E-05 3.70103680E-06-7.94754613E-07-1.00609115E-05-5.13852902E-06
 2 94-1.39635553E-06 3.73130407E-07 4.94895121E-08-6.46732857E-07-1.31473356E-06
 2 95 2.28366842E-06 1.24833641E-06-4.10260885E-07 1.46125884E-07-5.63381822E-07
 2 96 1.24133567E-07-6.41907293E-07-3.80019741E-06 1.96770764E-06 8.46336002E-07
 2 97-1.97322332E-07-9.27032681E-06-2.10110770E-06 4.01980372E-06-8.35531650E-08
 2 98 3.66927542E-07-2.83374377E-07 4.91934094E-07 4.80679246E-07-2.92279399E-07
 2 99-3.46617427E-08-5.16989420E-06 1.62820744E-05-1.29879286E-06 2.05152089E-07
 2100-1.56058785E-07 1.64798562E-06-6.20912464E-07 3.35476866E-06-1.65331329E-07
 2101 7.03100092E-07-5.37768763E-07 1.20097747E-07 1.34846932E-06 3.17153659E-08
 2102-2.72900600E-07-1.54043969E-06-7.93741555E-07 1.37329008E-06-4.95638993E-07
 2103 4.07677197E-07-7.72077216E-06 3.45998588E-07 7.30565072E-07 1.12941704E-07
 2104 6.84327785E-09-1.19784982E-07-7.71193310E-07 6.08778888E-07 2.64259797E-07
 3  1-1.25752725E-04-2.49883986E-04-8.17397913E-05-6.52216716E-03-1.69148317E-05
 3  2 3.50293209E-09-9.93253656E-07 1.07877436E-04-1.12675511E-07 9.34258850E-06
 3  3-3.35106978E-03-1.38993298E-06-4.25341512E-04-1.53753484E-05 3.33975300E-05
 3  4-1.80221816E-05-4.11788658E-09-3.02042213E-06 1.36511400E-08 1.19477825E-03
 3  5-1.33217868E-03 1.37400432E-04-2.59248090E-07 1.52738343E-04-3.45588448E-07
 3  6-1.45735051E-05-2.01450230E-08-3.08019534E-06 1.65041308E-08 1.31242728E-06
 3  7 2.94920354E-05 2.82008841E-06-9.93962647E-06 1.05232537E-08 1.16598322E-08
 3  8 4.53598450E-05 9.91706775E-05 1.62308346E-04 5.27902443E-03 2.00373707E-05
 3  9 1.80814747E-05 2.76394196E-06 5.47500015E-05 5.54594807E-06-3.59508010E-06
 3 10 1.14088383E-03 2.65308817E-03 9.79729015E-05-6.56343277E-05 3.86273930E-05
 3 11 2.70069347E-05 6.76343091E-05-1.30759710E-05 7.00864776E-06 4.47505445E-04
 3 12-6.06230687E-04 1.58725242E-04-1.78956065E-03 5.75617138E-05-1.92122704E-04
 3 13-8.13183766E-05-1.94966920E-05 1.58565152E-05 4.32498607E-05-2.59745183E-05
 3 14 5.31045346E-05 4.70077083E-06 5.59955162E-05-1.70923036E-05 6.95933223E-06
 3 15 2.41482008E-06 8.22691805E-06-1.25118109E-04-6.12003015E-03 1.17846274E-04
 3 16 5.01334503E-05 1.26729943E-05-9.09717793E-04-1.01202109E-03-9.40771819E-05
 3 17 1.24905168E-03-3.49555420E-03 1.58668352E-04 6.53903050E-05-3.37201820E-05
 3 18-3.16701230E-05 9.24891904E-05 1.25635926E-05 1.03445825E-05-1.59474930E-03
 3 19 1.78175284E-03-1.87003542E-04-2.76975519E-03-1.67000601E-04-3.12481599E-04
 3 20-1.39838417E-04 1.25830015E-04 9.63584143E-06-2.01473358E-04-3.00571085E-05
 3 21 1.50321981E-04 1.71292706E-05 3.72909436E-05 3.26546775E-05-2.99089379E-05
 3 22 4.21961393E-04 8.42194285E-04-6.83486844E-06 8.32446267E-03 9.21961451E-05
 3 23-3.04013432E-08 8.42731111E-06 7.78532229E-04 1.77296307E-07 9.34557976E-05
 3 24-5.17016474E-03 2.60494250E-06-5.59908662E-04 3.16128121E-04-3.26388246E-04
 3 25 1.02601245E-05-7.34258849E-08 3.81644727E-05-6.83830288E-08-3.56447452E-03
 3 26 4.08542241E-03-5.20947894E-04 8.90694008E-07-3.84310609E-04 1.02556199E-06
 3 27-3.64345200E-04-6.03066838E-08 3.33020089E-05 1.11395260E-07-8.43088266E-05
 3 28 3.53217266E-04 3.96294932E-05 1.35603115E-04-3.04853535E-08 4.81942143E-08
 3 29 2.38684952E-06 8.17081321E-06-1.25089944E-04-6.12373705E-03 1.17858289E-04
 3 30-5.01681966E-05 1.26487959E-05-9.09732935E-04 1.01218085E-03-9.36587031E-05
 3 31 1.24803922E-03 3.49741876E-03 1.59865199E-04 6.53530283E-05-3.36818019E-05
 3 32-3.16712264E-05-9.25039291E-05 1.25228466E-05-1.03428781E-05-1.59433244E-03
 3 33 1.78095661E-03-1.86624168E-04 2.77036021E-03-1.65920511E-04 3.13362409E-04
 3 34-1.39749471E-04-1.25897972E-04 9.61143151E-06 2.01581241E-04-2.99678040E-05
 3 35 1.50183032E-04 1.70727155E-05 3.73105572E-05-3.26713876E-05 2.99645250E-05
 3 36 4.53691916E-05 9.91816180E-05 1.62252708E-04 5.28204479E-03 2.00403290E-05
 3 37-1.80801484E-05 2.75255963E-06 5.47500538E-05-5.59459988E-06-3.55124644E-06
 3 38 1.13926637E-03-2.65517850E-03 9.68516189E-05-6.56389722E-05 3.86294159E-05
 3 39 2.70095563E-05-6.76105018E-05-1.31057996E-05-7.00598817E-06 4.48019002E-04
 3 40-6.06670480E-04 1.58651478E-04 1.78936789E-03 5.82994780E-05 1.91826659E-04
 3 41-8.13201560E-05 1.94870990E-05 1.58658637E-05-4.32351436E-05-2.59883548E-05
 3 42 5.31144370E-05 4.70206495E-06 5.59880011E-05 1.70904567E-05-6.96871648E-06
 3 43 4.07617260E-05 1.57513435E-03 6.24968785E-04 1.84645370E-06 2.62082969E-05
 3 44 1.97415548E-06 1.25467538E-04 4.14772439E-04-1.42950580E-05-4.36691627E-05
 3 45 1.69996883E-05 2.66694744E-05 3.00951548E-06-9.28164559E-06-1.71476410E-06
 3 46-1.12378499E-04-2.95031498E-03-9.91414094E-04 3.47964943E-05-5.06229135E-05
 3 47 4.39828256E-06 6.86224436E-04-6.51170812E-04 8.37755455E-05 2.80341970E-05
 3 48 1.82032830E-05-4.62374800E-05 7.52416838E-05 8.31780567E-06 8.59187433E-06
 3 49-1.12385670E-04-2.95008151E-03-9.91674180E-04 3.47902449E-05 5.06209805E-05
 3 50 4.41256841E-06 6.86272984E-04 6.50944764E-04 8.40782023E-05 2.80248386E-05
 3 51 1.82268607E-05-4.62516994E-05-7.52362548E-05 8.28020900E-06-8.56710065E-06
 3 52 4.07464968E-05 1.57495753E-03 6.25197294E-04 1.83006455E-06-2.62190010E-05
 3 53 1.96012614E-06 1.25321761E-04-4.14751999E-04-1.43883010E-05-4.36794638E-05
 3 54 1.70135662E-05 2.66658976E-05-2.98507589E-06-9.28397424E-06 1.70952038E-06
 3 55-6.66528480E-05-1.20105721E-04-3.92556691E-06-1.34202432E-03 1.51760434E-05
 3 56-1.89535951E-08 4.13214171E-06-2.30972475E-04 1.30742013E-07-3.03511043E-05
 3 57-4.09463365E-04 4.86379501E-07 9.63359318E-06-5.23404976E-06-7.41365559E-06
 3 58 1.26477054E-05 3.97370510E-09-3.45047678E-06-1.34610379E-09-1.00198682E-04
 3 59 1.49391452E-04-4.91927699E-05 3.07895175E-08 1.06792769E-05 4.92662463E-08
 3 60-4.01942979E-06 1.44211001E-08 1.32705816E-06-2.98550884E-09 6.19008910E-06
 3 61 1.02914416E-05-7.97052445E-06-4.89881063E-06-1.63624273E-08-3.98417631E-09
 3 62-1.69715775E-05 1.34146882E-05-1.16183548E-04-5.58097661E-06 6.71936017E-06
 3 63-9.40907225E-06-1.23187727E-07-1.74814825E-05-3.09678701E-05 1.75814931E-06
 3 64 8.64366694E-06-1.04018162E-05 2.06747999E-06-6.87572875E-06 8.55290249E-06
 3 65-1.69363727E-05 1.37418192E-05-1.16108134E-04-5.56297622E-06-6.66615102E-06
 3 66-9.43086143E-06-1.37604929E-07 1.75634348E-05-3.08341167E-05 1.75326454E-06
 3 67 8.66909756E-06-1.04223621E-05-2.04936994E-06-6.87569540E-06-8.51785196E-06
 3 68 9.73558268E-01 6.31478524E-04 5.02201902E-02 9.13996870E-03 2.84701687E-04
 3 69-6.64356233E-09 2.87962568E-05 1.05682609E-03 1.68753082E-07 1.10220867E-04
 3 70-2.67461350E-04-3.71487001E-07-2.88065384E-05-5.85846550E-05 7.82008549E-04
 3 71-7.23423894E-04 6.03453696E-08 8.22375795E-05-2.54452261E-10-9.54608681E-05
 3 72 4.86068678E-04-3.90607810E-04 2.67315884E-07 3.47266505E-05-1.16312032E-07
 3 73-4.10815964E-04-1.09127956E-07-7.92856675E-05 1.44391693E-07 1.35480882E-05
 3 74 8.84175046E-04 9.28247970E-05-3.33007594E-04 2.01882399E-09 1.40714521E-08
 3 75-3.13216974E-04-3.05789176E-04 5.34452221E-04-2.88047403E-03-2.12327662E-04
 3 76 4.26210554E-04-2.23214330E-05 6.18182501E-04-1.24127269E-03 6.50696104E-05
 3 77 5.20954380E-04-1.17838278E-03 5.46780546E-05-2.79775552E-05 3.98153850E-05
 3 78-1.18378298E-05-6.02932030E-05-2.02806835E-06-6.37970505E-06 3.56851952E-04
 3 79-9.90914092E-04 6.34062141E-04 1.00041338E-03-3.38453417E-05 1.05240796E-04
 3 80-3.70103597E-04-3.41623400E-04-4.78905619E-05 3.39341079E-05-9.23581034E-06
 3 81 6.99728631E-04 7.34877414E-05-2.03182549E-04 4.24401779E-04-4.78112675E-05
 3 82-3.13338420E-04-3.05997596E-04 5.34503905E-04-2.88043875E-03-2.12381667E-04
 3 83-4.26212429E-04-2.23239788E-05 6.18392253E-04 1.24143163E-03 6.50985532E-05
 3 84 5.21103778E-04 1.17841209E-03 5.47157336E-05-2.79688678E-05 3.98004918E-05
 3 85-1.18316240E-05 6.02929556E-05-2.02109361E-06 6.38532715E-06 3.56718155E-04
 3 86-9.90842573E-04 6.34124418E-04-1.00067505E-03-3.38862073E-05-1.05263750E-04
 3 87-3.70131319E-04 3.41452909E-04-4.78820399E-05-3.37130922E-05-9.22106001E-06
 3 88 6.99822293E-04 7.34615576E-05-2.03239019E-04-4.24394057E-04 4.78165814E-05
 3 89 2.34906080E-05 4.77825067E-05-1.46682629E-05 5.56422913E-05 4.76692983E-07
 3 90-3.02272929E-09-1.62186982E-06-3.94295401E-05 1.51472783E-07-6.24665107E-05
 3 91 7.25824504E-07 8.28066622E-08-1.26843557E-05-7.03855288E-07-6.87930081E-06
 3 92 7.58315610E-06 7.71077563E-09-4.91361593E-06-9.34418060E-09 8.19797729E-05
 3 93-7.62835896E-05-5.69618329E-06 1.03337577E-07 1.11720691E-05 1.63640983E-08
 3 94-1.10386787E-05-1.06932944E-08 2.84163835E-06 2.90634140E-09-1.09436403E-05
 3 95 7.73010376E-06 7.13118243E-06 7.07983782E-06 1.14402185E-08 4.73224509E-09
 3 96-1.32279878E-06 5.66392417E-06-5.54299374E-06 3.16631528E-06-1.10761218E-07
 3 97 1.23007498E-06-2.19587865E-05 8.33829284E-06-5.08693037E-07 2.34464312E-07
 3 98-1.57169869E-06 1.33723438E-06 1.19425638E-06 2.67269380E-07-2.26817770E-07
 3 99 6.50186481E-06-1.29909594E-04-1.49879668E-05-2.84684318E-06-2.50693181E-09
 3100-3.44952118E-07-3.25742423E-05 1.39852012E-08 3.15833824E-07-1.55887133E-06
 3101 2.85981170E-06-1.30094037E-06-2.40308851E-09 2.54151853E-06 5.86559331E-09
 3102-1.34237116E-06 5.93470560E-06-5.44015220E-06 3.16087292E-06 1.13269881E-07
 3103 1.23157215E-06-2.19384760E-05-8.28833255E-06-5.69528384E-07 2.27379389E-07
 3104-1.57449013E-06 1.34711074E-06-1.20118963E-06 2.56183835E-07 2.19692299E-07
 4  1-3.05043358E-04-6.47334023E-04-1.21261690E-04 2.49042807E-03 1.52356653E-04
 4  2 3.66623358E-08-7.38510825E-06 8.97721713E-04-1.41916049E-08 7.46643471E-05
 4  3-4.95449343E-03 1.36769161E-05-1.24023158E-03-3.49844265E-04 3.27498256E-04
 4  4 2.23460095E-05 3.15476938E-08-2.58912930E-05 1.05762665E-07 3.31380021E-03
 4  5-3.49845621E-03 1.84655997E-04 3.79347335E-07-2.60616090E-05-8.08663834E-07
 4  6-3.91849143E-04-2.58718330E-08-6.13099434E-05-1.55842722E-08 9.13976885E-05
 4  7 3.43042283E-04-9.14176778E-06 1.82678509E-04 5.02949787E-08-3.86429945E-08
 4  8-6.19086342E-06-2.57403677E-05 8.73058865E-05 2.51891453E-03 1.18823116E-04
 4  9-4.10482683E-05 3.45645707E-06-9.06930766E-04 6.89382083E-04-7.86159067E-05
 4 10 2.06447571E-03 4.21095698E-04 5.51513220E-04-7.85379780E-05 5.00904407E-05
 4 11 2.84475373E-05 9.08953247E-05-1.25893789E-05-1.94502629E-05 1.55099018E-03
 4 12-1.80137133E-03 2.50381148E-04-2.32908989E-03 2.37509317E-04-7.05823372E-06
 4 13-1.63522715E-04-1.10913690E-04 9.26072695E-06 1.81728879E-04-3.45607366E-05
 4 14 1.77174921E-04 2.21361676E-05 4.22138229E-05-3.29225496E-05 7.37574920E-06
 4 15-3.29542405E-05-8.01382568E-05-1.95222238E-04-2.66122513E-03 1.92507474E-05
 4 16-1.87508166E-05 8.10831225E-06 1.35673767E-04 4.54066888E-05-2.33302942E-05
 4 17 1.28075822E-03-2.41219727E-04 9.98468783E-06 5.96074042E-05-3.93446507E-05
 4 18-2.02627535E-05 7.50052201E-05 1.20039962E-05 9.01558245E-06-2.69837493E-04
 4 19 5.29609626E-04-2.59772133E-04-1.55286365E-03 3.40616829E-05-2.04974546E-04
 4 20-8.36056458E-05 1.99790352E-05 1.68414200E-05-3.80889117E-05-3.21684906E-05
 4 21 5.49426824E-05 9.57335453E-06 5.72260620E-05 1.12842231E-05 4.36136925E-06
 4 22 1.50818854E-04 2.94802579E-04 8.97445645E-05 9.80452337E-04-2.85773497E-05
 4 23-1.85042805E-08-1.81997372E-06 2.74648957E-04 1.29662260E-07 2.88537187E-05
 4 24-1.94339587E-03-5.70181435E-06-8.02430361E-05 1.98401395E-08-1.95632549E-05
 4 25 1.95434147E-05 2.11194207E-08 2.38055821E-06-5.35880967E-09-8.95917013E-04
 4 26 9.27405607E-04-3.14885938E-05-2.95247575E-07-1.36325354E-04 1.64006907E-07
 4 27-2.25758763E-05 7.97636437E-09-5.46774815E-06 1.08202185E-08 2.01704609E-06
 4 28 4.26546825E-05 5.31870784E-06-1.23659662E-05-2.15216343E-08 1.85093009E-08
 4 29-3.28139252E-05-7.98717184E-05-1.95333427E-04-2.64797276E-03 1.93719567E-05
 4 30 1.87134245E-05 8.13076461E-06 1.33589836E-04-4.47984790E-05-2.35676387E-05
 4 31 1.28296971E-03 2.33950721E-04 1.02449392E-05 5.96618260E-05-3.93760787E-05
 4 32-2.02857473E-05-7.49731473E-05 1.19861089E-05-9.02137652E-06-2.68368607E-04
 4 33 5.28396356E-04-2.60027749E-04 1.55246687E-03 3.49226881E-05 2.05262605E-04
 4 34-8.36450396E-05-2.00213342E-05 1.68508526E-05 3.81469270E-05-3.21923572E-05
 4 35 5.49757928E-05 9.58456603E-06 5.72458039E-05-1.12854884E-05-4.35268971E-06
 4 36-6.10130529E-06-2.55445555E-05 8.74515133E-05 2.49415279E-03 1.18945757E-04
 4 37 4.09678403E-05 3.44539919E-06-9.08967127E-04-6.88019134E-04-7.88397945E-05
 4 38 2.06890846E-03-4.10606819E-04 5.52126002E-04-7.84448786E-05 5.00731643E-05
 4 39 2.83717143E-05-9.08567339E-05-1.25979858E-05 1.94546540E-05 1.55010477E-03
 4 40-1.80114121E-03 2.51036443E-04 2.32750105E-03 2.38020377E-04 6.04985927E-06